outputs/case_388.model.txt
required_ratio = -92721/10000
semiannual_report_reviewed = False
own_capital = -9272100000
semiannual_report_submission_days = 7
required_net_worth_ratio = -50
net_worth_ratio_value = -50
risk_capital = 1000000000
annual_report_submitted = False
under_supervision = True
net_worth = -1000000000
annual_report_audited = False
annual_report_submission_days = 7
semiannual_report_submitted = False
semiannual_report_audited = False
reporting_semiannual_compliance = False
net_worth_ratio = -50
capital_adequacy_minimum_met = True
penalty = False
capital_level = 4
capital_adequacy_ratio = -92721/10000
reporting_annual_compliance = False
reporting_compliance = True
/0 = [else -> -92721/10000]